GeneratedTests/Random_12/Random_12_15.tsp
NAME: Random_12_15
TYPE: TSP
DIMENSION: 12
EDGE_WEIGHT_TYPE: EUC_2D
NODE_COORD_SECTION
1 2.84403 34.281914
2 20.309483 18.668098
3 0.4053054 0.03163719
4 17.411385 8.160574
5 19.389393 16.692726
6 2.8462057 2.6397593
7 3.4212434 20.59933
8 25.334034 18.441912
9 19.753231 35.52308
10 19.165577 22.551596
11 10.762726 25.902529
12 20.496698 26.04817
EOF
