GeneratedTests/Random_12/Random_12_15.txt
NAME: Random_12_15
TYPE: TSP
DIMENSION: 12
EDGE_WEIGHT_TYPE: EUC_2D
NODE_COORD_SECTION
1 12.152091 5.4081593
2 18.591 21.169653
3 4.5154967 16.091642
4 31.974926 6.4415865
5 27.121264 1.4036429
6 31.128761 14.126568
7 10.667791 2.0001683
8 30.32441 7.382519
9 7.553547 30.225283
10 26.053192 23.375412
11 33.038128 28.758463
12 4.385635 19.361032
EOF
